69
3 72 39 8 
1 119 
2 59 44 
1 111 
3 47 116 94 
3 75 46 109 
1 77 
2 40 83 
2 12 63 
2 30 102 
3 62 114 33 
2 6 120 
2 2 42 
2 55 10 
2 18 11 
2 31 38 
2 24 27 
1 17 
2 78 93 
1 15 
3 61 36 53 
2 91 92 
2 105 41 
2 79 3 
2 54 20 
3 13 64 49 
1 23 
3 34 100 73 
2 50 81 
1 7 
2 56 70 
2 69 60 
2 86 67 
3 58 26 65 
2 9 104 
2 98 16 
2 103 84 
1 51 
2 74 43 
1 4 
1 71 
1 45 
1 97 
2 80 99 
2 82 88 
2 115 76 
2 25 68 
1 1 
2 108 57 
2 14 95 
2 35 110 
1 29 
1 96 
2 85 32 
1 118 
1 19 
1 101 
2 22 87 
1 48 
1 113 
3 28 107 89 
2 5 37 
1 112 
1 117 
1 90 
1 21 
1 106 
1 66 
1 52 
